8181
30, 2, 7, 42, 21, 17, 3, 18, 31, 23, 1, 22, 49, 32, 19, 45, 41, 8, 10, 9, 43, 33, 51, 11, 52, 14, 13, 27, 47, 26, 28, 12, 25, 4, 6, 15, 5, 48, 24, 38, 37, 40, 39, 35, 36, 34, 44, 46, 29, 16, 50, 20
